&control
  calculation = 'scf' 
  restart_mode = 'from_scratch'
  pseudo_dir = './'
  outdir = './'
  prefix = 'Na'
  disk_io = 'none'
/
&system
  ibrav = 4,
  celldm(1) = 4.6412,
  celldm(3) = 2.7263,
  nat = 4
  ntyp = 1
  occupations = 'smearing'
  smearing = 'mv' 
  degauss = 0.01
  ecutwfc = 60.0
  ecutrho = 240.0
/
&electrons
  conv_thr = 1.0d-8
  mixing_beta = 0.7
/
ATOMIC_SPECIES
   C   12.0107   C.pz-vbc.UPF 
ATOMIC_POSITIONS (alat) 
  C  0.000000000         0.000000000         0.000000000
  C  0.000000000         0.000000000         0.500000000
  C  0.333333343         0.666666687         0.000000000
  C  0.666666627         0.333333313         0.500000000
K_POINTS automatic 
  3 3 1  0 0 0

